peakDumbCharging = 25900; 
Machine = anon_enum(16); 
machineSpeed = [3700,3700,3700,3700,3700,3700,3700,3700,3700,3700,3700,3700,3700,3700,3700,3700]; 
machineLoad = [3700,3700,3700,3700,3700,3700,3700,3700,3700,3700,3700,3700,3700,3700,3700,3700]; 
Car = anon_enum(36); 
demandCar = [8760,6720,4400,10360,7480,2160,1240,2000,16640,27880,2120,3000,9320,2120,14480,4960,1480,28160,18000,2280,6680,4160,4640,1320,18880,26480,1120,11120,14080,4800,12040,11760,5720,9000,27120,6040]; 
arrivalCar = [73,72,72,70,69,68,67,67,67,67,67,66,66,65,62,60,60,58,58,58,57,57,56,55,51,48,44,43,42,40,40,40,39,32,27,24]; 
departureCar = [77,78,74,75,73,70,69,69,73,76,69,69,71,67,69,63,62,70,65,60,62,61,59,56,58,62,46,49,48,44,47,44,47,35,37,28]; 
